HUN,8,6,717
0,30,4,28,2,27,3,26,1,28,5,25
3,26,4,25,0,29,2,22,1,27,5,28
1,27,3,26,0,24,4,28,5,28,2,25
5,30,1,28,2,29,3,22,4,26,0,28
2,21,3,30,5,28,1,27,4,30,0,26
3,30,4,23,0,26,1,21,2,21,5,22
4,29,3,21,2,29,5,24,0,28,1,30
0,23,2,21,4,30,5,24,3,25,1,23
